c 180_4_checker_5cl.cnf
c
c field = 180
c formula set type = 4_checker_5cl
c
p cnf 5 6
350 
352 
354 
356 
-348 
351 
353 
355 
357 
-349 
328 
388 
418 
448 
-298 
329 
389 
419 
449 
-299 
230 
262 
294 
326 
-198 
231 
263 
295 
327 
-199 
